Gurobi Optimizer version 9.1.2 build v9.1.2rc0 (linux64)
Thread count: 36 physical cores, 72 logical processors, using up to 32 threads
Optimize a model with 12 rows, 57 columns and 590 nonzeros
Model fingerprint: 0xf32eec78
Model has 47 quadratic constraints
Coefficient statistics:
  Matrix range     [2e-05, 3e+00]
  QMatrix range    [1e+00, 1e+00]
  QLMatrix range   [1e+00, 1e+00]
  Objective range  [8e-03, 7e-01]
  Bounds range     [1e+00, 1e+00]
  RHS range        [1e+00, 1e+00]
Presolve removed 9 rows and 0 columns

Continuous model is non-convex -- solving as a MIP.

Presolve removed 9 rows and 0 columns
Presolve time: 0.00s
Presolved: 189 rows, 57 columns, 443 nonzeros
Presolved model has 47 bilinear constraint(s)
Variable types: 57 continuous, 0 integer (0 binary)

Root relaxation: objective -1.743721e+00, 44 iterations, 0.00 seconds

    Nodes    |    Current Node    |     Objective Bounds      |     Work
 Expl Unexpl |  Obj  Depth IntInf | Incumbent    BestBd   Gap | It/Node Time

     0     0   -1.74372    0   38          -   -1.74372      -     -    0s
H    0     0                       0.6147548   -1.74372   384%     -    0s
     0     0   -1.64739    0    1    0.61475   -1.64739   368%     -    0s
H    0     0                      -1.6450460   -1.64739  0.14%     -    0s
     0     0     cutoff    0        -1.64505   -1.64505  0.00%     -    0s

Cutting planes:
  RLT: 25
  BQP: 3

Explored 1 nodes (76 simplex iterations) in 0.01 seconds
Thread count was 32 (of 72 available processors)

Solution count 2: -1.64505 0.614755 
No other solutions better than -1.64505

Optimal solution found (tolerance 1.00e-04)
Best objective -1.645045978473e+00, best bound -1.645045978473e+00, gap 0.0000%

User-callback calls 78, time in user-callback 0.00 sec
Gurobi Optimizer version 9.1.2 build v9.1.2rc0 (linux64)
Thread count: 36 physical cores, 72 logical processors, using up to 32 threads
Optimize a model with 24 rows, 125 columns and 2580 nonzeros
Model fingerprint: 0x6acf8eca
Model has 105 quadratic constraints
Coefficient statistics:
  Matrix range     [4e-06, 5e+01]
  QMatrix range    [1e+00, 1e+00]
  QLMatrix range   [1e+00, 1e+00]
  Objective range  [2e-02, 2e+00]
  Bounds range     [1e+00, 1e+00]
  RHS range        [1e+00, 1e+00]
Presolve removed 10 rows and 0 columns

Continuous model is non-convex -- solving as a MIP.

Presolve removed 10 rows and 0 columns
Presolve time: 0.00s
Presolved: 429 rows, 125 columns, 2142 nonzeros
Presolved model has 105 bilinear constraint(s)
Variable types: 125 continuous, 0 integer (0 binary)

Root relaxation: objective -8.684737e+00, 126 iterations, 0.00 seconds

    Nodes    |    Current Node    |     Objective Bounds      |     Work
 Expl Unexpl |  Obj  Depth IntInf | Incumbent    BestBd   Gap | It/Node Time

     0     0   -8.68474    0   57          -   -8.68474      -     -    0s
H    0     0                      -0.6220957   -8.68474  1296%     -    0s
     0     0   -6.92363    0   95   -0.62210   -6.92363  1013%     -    0s
H    0     0                      -1.8910181   -6.92363   266%     -    0s
     0     0   -6.89169    0   95   -1.89102   -6.89169   264%     -    0s
     0     0   -6.44631    0   70   -1.89102   -6.44631   241%     -    0s
H    0     0                      -3.2081640   -6.44631   101%     -    0s
     0     0   -6.44331    0   70   -3.20816   -6.44331   101%     -    0s
     0     0   -6.31025    0   70   -3.20816   -6.31025  96.7%     -    0s
     0     0   -6.30077    0   70   -3.20816   -6.30077  96.4%     -    0s
     0     0   -6.27519    0   70   -3.20816   -6.27519  95.6%     -    0s
     0     0   -6.27171    0   70   -3.20816   -6.27171  95.5%     -    0s
     0     0   -6.27053    0   83   -3.20816   -6.27053  95.5%     -    0s
     0     0   -6.26965    0   83   -3.20816   -6.26965  95.4%     -    0s
     0     0   -6.26783    0   70   -3.20816   -6.26783  95.4%     -    0s
H    0     0                      -3.8278225   -6.26783  63.7%     -    0s
H    0     0                      -4.4444382   -6.26783  41.0%     -    0s
H    0     0                      -4.5513041   -6.26783  37.7%     -    0s
     0     2   -6.26783    0   70   -4.55130   -6.26783  37.7%     -    0s
*  803   588              21      -4.5530859   -5.61171  23.3%  28.1    0s
*  805   588              22      -4.5530906   -5.61171  23.3%  28.1    0s
*  830   588              21      -4.5992933   -5.61171  22.0%  27.7    0s
*  831   588              21      -4.5992941   -5.61171  22.0%  27.6    0s
* 1174   888              36      -4.6650980   -5.59548  19.9%  23.9    0s
* 1300  1048              26      -4.8622939   -5.59548  15.1%  22.5    0s
* 1370  1048              37      -5.0307344   -5.59548  11.2%  21.9    0s
* 1765  1064              28      -5.0557601   -5.46132  8.02%  20.1    0s
* 2092  1258              21      -5.1190013   -5.39534  5.40%  19.0    0s
* 2154  1258              23      -5.1222497   -5.39534  5.33%  18.7    0s
* 2319  1486              20      -5.1709266   -5.39534  4.34%  18.2    0s
* 2320  1486              20      -5.1709409   -5.39534  4.34%  18.2    0s
* 2398  1486              36      -5.1719825   -5.39534  4.32%  17.9    0s
* 2399  1486              36      -5.1720701   -5.39534  4.32%  17.9    0s
* 2473  1486              25      -5.1845252   -5.39534  4.07%  17.7    0s
* 2475  1486              26      -5.1845372   -5.39534  4.07%  17.7    0s
* 2712  1716              20      -5.2175317   -5.39534  3.41%  16.9    0s
* 2713  1716              20      -5.2175675   -5.39534  3.41%  16.9    0s
* 2920  1716              18      -5.2204692   -5.39534  3.35%  16.3    0s
* 2921  1716              18      -5.2204754   -5.39534  3.35%  16.2    0s
* 3056  1716              23      -5.2243759   -5.39534  3.27%  15.9    0s
* 3059  1716              23      -5.2244400   -5.39534  3.27%  15.9    0s
* 3122  1716              18      -5.2378088   -5.39534  3.01%  15.7    0s
* 3212  1293              21      -5.2405828   -5.27298  0.62%  15.4    0s
* 3791   691              21      -5.2409068   -5.27298  0.61%  13.3    0s
* 3797   691              25      -5.2409069   -5.27298  0.61%  13.3    0s
* 3803   691              26      -5.2409076   -5.27298  0.61%  13.3    0s
* 3808   691              26      -5.2409088   -5.27298  0.61%  13.3    0s

Cutting planes:
  RLT: 61
  BQP: 5
  PSD: 96

Explored 5225 nodes (51754 simplex iterations) in 0.82 seconds
Thread count was 32 (of 72 available processors)

Solution count 10: -5.24091 -5.24091 -5.24091 ... -5.21757
No other solutions better than -5.24091

Optimal solution found (tolerance 1.00e-04)
Best objective -5.240908750204e+00, best bound -5.240908750204e+00, gap 0.0000%

User-callback calls 10758, time in user-callback 0.00 sec



objective value: -5.240908750204275
objective bound: -5.240908750204275
x_opt: [1.0, 0.0, 1.0, 0.0, 0.19695875535823432, 0.0, 1.0, 1.0, 0.4558100742158141, 0.0, 0.0, 0.0, 0.7922936871688184, 0.0, 0.45510770136338696, 0.3192022879211976, 0.0, 0.0, 0.0, 0.0]
GUROBI solution time: 0.8154611587524414




